(set-info :smt-lib-version 2.6)
(set-logic QF_NIA)
(set-info :source |
Generated by: Cristina Borralleras, Daniel Larraz, Albert Oliveras, Enric Rodriguez-Carbonell, Albert Rubio
Generated on: 2017-04-27
Generator: VeryMax
Application: Termination proving
Target solver: barcelogic
|)
(set-info :license "https://creativecommons.org/licenses/by/4.0/")
(set-info :category "industrial")
(set-info :status unknown)
(declare-fun Nl44a!1052^01 () Int)
(declare-fun Nl44a!1055^01 () Int)
(declare-fun Nl44head!16^01 () Int)
(declare-fun Nl44sdv_CALLSITE_RETURN_1!14^01 () Int)
(declare-fun Nl44x!15^01 () Int)
(declare-fun Nl44a!1052^02 () Int)
(declare-fun Nl44a!1055^02 () Int)
(declare-fun Nl44head!16^02 () Int)
(declare-fun Nl44sdv_CALLSITE_RETURN_1!14^02 () Int)
(declare-fun Nl44x!15^02 () Int)
(declare-fun lam0n0 () Int)
(declare-fun lam0n1 () Int)
(declare-fun lam0n2 () Int)
(declare-fun lam0n3 () Int)
(declare-fun lam0n4 () Int)
(declare-fun Nl44CT1 () Int)
(declare-fun lam0n5 () Int)
(declare-fun lam0n6 () Int)
(declare-fun lam1n0 () Int)
(declare-fun lam1n1 () Int)
(declare-fun lam1n2 () Int)
(declare-fun lam1n3 () Int)
(declare-fun lam1n4 () Int)
(declare-fun Nl44CT2 () Int)
(declare-fun lam1n5 () Int)
(declare-fun lam1n6 () Int)
(declare-fun lam2n0 () Int)
(declare-fun lam2n1 () Int)
(declare-fun lam2n2 () Int)
(declare-fun lam2n3 () Int)
(declare-fun lam2n4 () Int)
(declare-fun lam2n5 () Int)
(declare-fun lam2n6 () Int)
(declare-fun lam3n0 () Int)
(declare-fun lam3n1 () Int)
(declare-fun lam3n2 () Int)
(declare-fun lam3n3 () Int)
(declare-fun lam3n4 () Int)
(declare-fun lam3n5 () Int)
(declare-fun lam3n6 () Int)
(declare-fun x!15^0 () Int)
(declare-fun undef4401 () Int)
(declare-fun head!16^0 () Int)
(declare-fun sdv_CALLSITE_RETURN_1!14^0 () Int)
(declare-fun undef4374 () Int)
(declare-fun a!1052^0 () Int)
(declare-fun lam4n0 () Int)
(declare-fun lam4n1 () Int)
(declare-fun lam4n2 () Int)
(declare-fun lam4n3 () Int)
(declare-fun lam4n6 () Int)
(declare-fun lam4n7 () Int)
(declare-fun lam4n4 () Int)
(declare-fun lam4n5 () Int)
(declare-fun lam5n0 () Int)
(declare-fun lam5n1 () Int)
(declare-fun lam5n2 () Int)
(declare-fun lam5n3 () Int)
(declare-fun lam5n6 () Int)
(declare-fun lam5n7 () Int)
(declare-fun lam5n4 () Int)
(declare-fun lam5n5 () Int)
(assert ( and ( <= ( - 1 ) Nl44a!1052^01 ) ( <= Nl44a!1052^01 1 ) ( <= ( - 1 ) Nl44a!1055^01 ) ( <= Nl44a!1055^01 1 ) ( <= ( - 1 ) Nl44head!16^01 ) ( <= Nl44head!16^01 1 ) ( <= ( - 1 ) Nl44sdv_CALLSITE_RETURN_1!14^01 ) ( <= Nl44sdv_CALLSITE_RETURN_1!14^01 1 ) ( <= ( - 1 ) Nl44x!15^01 ) ( <= Nl44x!15^01 1 ) ( <= ( - 1 ) Nl44a!1052^02 ) ( <= Nl44a!1052^02 1 ) ( <= ( - 1 ) Nl44a!1055^02 ) ( <= Nl44a!1055^02 1 ) ( <= ( - 1 ) Nl44head!16^02 ) ( <= Nl44head!16^02 1 ) ( <= ( - 1 ) Nl44sdv_CALLSITE_RETURN_1!14^02 ) ( <= Nl44sdv_CALLSITE_RETURN_1!14^02 1 ) ( <= ( - 1 ) Nl44x!15^02 ) ( <= Nl44x!15^02 1 ) ))
(assert ( or ( and ( <= ( + 1 ( * ( - 1 ) x!15^0 ) ) 0 ) ( <= ( + 1 ( * ( - 1 ) undef4401 ) ) 0 ) ( not ( <= ( + ( - 1 ) head!16^0 ) 0 ) ) ( <= ( + 2 ( * ( - 1 ) sdv_CALLSITE_RETURN_1!14^0 ) ) 0 ) ( <= ( + 2 ( * ( - 1 ) undef4374 ) ) 0 ) ( = a!1052^0 0 ) ( = ( + head!16^0 ( * ( - 1 ) undef4401 ) ) 0 ) ( <= ( + ( + ( + Nl44CT1 ( * Nl44a!1055^01 ( - 1 ) ) ) ( * Nl44x!15^01 0 ) ) ( * ( + 0 Nl44a!1052^01 ) a!1052^0 ) ( * ( + 0 Nl44head!16^01 ) head!16^0 ) ( * ( + 0 Nl44sdv_CALLSITE_RETURN_1!14^01 ) sdv_CALLSITE_RETURN_1!14^0 ) ( * ( + 0 ( * Nl44a!1055^01 1 ) ) undef4374 ) ( * ( + 0 ( * Nl44x!15^01 1 ) ) undef4401 ) ) 0 ) ( <= ( + ( + ( + Nl44CT2 ( * Nl44a!1055^02 ( - 1 ) ) ) ( * Nl44x!15^02 0 ) ) ( * ( + 0 Nl44a!1052^02 ) a!1052^0 ) ( * ( + 0 Nl44head!16^02 ) head!16^0 ) ( * ( + 0 Nl44sdv_CALLSITE_RETURN_1!14^02 ) sdv_CALLSITE_RETURN_1!14^0 ) ( * ( + 0 ( * Nl44a!1055^02 1 ) ) undef4374 ) ( * ( + 0 ( * Nl44x!15^02 1 ) ) undef4401 ) ) 0 ) ) ( and ( <= ( + 1 x!15^0 ) 0 ) ( <= ( + 1 ( * ( - 1 ) undef4401 ) ) 0 ) ( not ( <= ( + ( - 1 ) head!16^0 ) 0 ) ) ( <= ( + 2 ( * ( - 1 ) sdv_CALLSITE_RETURN_1!14^0 ) ) 0 ) ( <= ( + 2 ( * ( - 1 ) undef4374 ) ) 0 ) ( = a!1052^0 0 ) ( = ( + head!16^0 ( * ( - 1 ) undef4401 ) ) 0 ) ( <= ( + ( + ( + Nl44CT1 ( * Nl44a!1055^01 ( - 1 ) ) ) ( * Nl44x!15^01 0 ) ) ( * ( + 0 Nl44a!1052^01 ) a!1052^0 ) ( * ( + 0 Nl44head!16^01 ) head!16^0 ) ( * ( + 0 Nl44sdv_CALLSITE_RETURN_1!14^01 ) sdv_CALLSITE_RETURN_1!14^0 ) ( * ( + 0 ( * Nl44a!1055^01 1 ) ) undef4374 ) ( * ( + 0 ( * Nl44x!15^01 1 ) ) undef4401 ) ) 0 ) ( <= ( + ( + ( + Nl44CT2 ( * Nl44a!1055^02 ( - 1 ) ) ) ( * Nl44x!15^02 0 ) ) ( * ( + 0 Nl44a!1052^02 ) a!1052^0 ) ( * ( + 0 Nl44head!16^02 ) head!16^0 ) ( * ( + 0 Nl44sdv_CALLSITE_RETURN_1!14^02 ) sdv_CALLSITE_RETURN_1!14^0 ) ( * ( + 0 ( * Nl44a!1055^02 1 ) ) undef4374 ) ( * ( + 0 ( * Nl44x!15^02 1 ) ) undef4401 ) ) 0 ) ) ))
(assert ( or ( or ( and ( >= lam4n0 0 ) ( >= lam4n1 0 ) ( >= lam4n2 0 ) ( >= lam4n3 0 ) ( >= lam4n6 0 ) ( >= lam4n7 0 ) ( > ( + ( * 1 lam4n0 ) ( * 1 lam4n1 ) ( * 1 lam4n2 ) ( * 2 lam4n3 ) ( * Nl44CT1 lam4n6 ) ( * Nl44CT2 lam4n7 ) ( - 1 ) ) 0 ) ( = ( + ( * 1 lam4n4 ) ( * Nl44a!1052^01 lam4n6 ) ( * Nl44a!1052^02 lam4n7 ) ) 0 ) ( = ( + ( * ( - 1 ) lam4n0 ) ( * Nl44a!1055^01 lam4n6 ) ( * Nl44a!1055^02 lam4n7 ) ) 0 ) ( = ( + ( * ( - 1 ) lam4n1 ) ( * 1 lam4n5 ) ( * Nl44head!16^01 lam4n6 ) ( * Nl44head!16^02 lam4n7 ) ) 0 ) ( = ( + ( * ( - 1 ) lam4n3 ) ( * Nl44sdv_CALLSITE_RETURN_1!14^01 lam4n6 ) ( * Nl44sdv_CALLSITE_RETURN_1!14^02 lam4n7 ) ) 0 ) ( = ( + ( * ( - 1 ) lam4n2 ) ( * ( - 1 ) lam4n5 ) ( * Nl44x!15^01 lam4n6 ) ( * Nl44x!15^02 lam4n7 ) ) 0 ) ) ( and ( >= lam5n0 0 ) ( >= lam5n1 0 ) ( >= lam5n2 0 ) ( >= lam5n3 0 ) ( >= lam5n6 0 ) ( >= lam5n7 0 ) ( > ( + ( * 1 lam5n0 ) ( * 1 lam5n1 ) ( * 1 lam5n2 ) ( * 2 lam5n3 ) ( * Nl44CT1 lam5n6 ) ( * Nl44CT2 lam5n7 ) 2 ) 0 ) ( = ( + ( * 1 lam5n4 ) ( * Nl44a!1052^01 lam5n6 ) ( * Nl44a!1052^02 lam5n7 ) ) 0 ) ( = ( + ( * ( - 1 ) lam5n0 ) ( * Nl44a!1055^01 lam5n6 ) ( * Nl44a!1055^02 lam5n7 ) ) 0 ) ( = ( + ( * ( - 1 ) lam5n1 ) ( * 1 lam5n5 ) ( * Nl44head!16^01 lam5n6 ) ( * Nl44head!16^02 lam5n7 ) ( - 1 ) ) 0 ) ( = ( + ( * ( - 1 ) lam5n3 ) ( * Nl44sdv_CALLSITE_RETURN_1!14^01 lam5n6 ) ( * Nl44sdv_CALLSITE_RETURN_1!14^02 lam5n7 ) ) 0 ) ( = ( + ( * ( - 1 ) lam5n2 ) ( * ( - 1 ) lam5n5 ) ( * Nl44x!15^01 lam5n6 ) ( * Nl44x!15^02 lam5n7 ) ) 0 ) ) ) ( and ( or ( and ( <= ( + 1 ( * ( - 1 ) x!15^0 ) ) 0 ) ( <= ( + 1 ( * ( - 1 ) undef4401 ) ) 0 ) ( not ( <= ( + ( - 1 ) head!16^0 ) 0 ) ) ( <= ( + 2 ( * ( - 1 ) sdv_CALLSITE_RETURN_1!14^0 ) ) 0 ) ( <= ( + 2 ( * ( - 1 ) undef4374 ) ) 0 ) ( = a!1052^0 0 ) ( = ( + head!16^0 ( * ( - 1 ) undef4401 ) ) 0 ) ( <= ( + ( + ( + Nl44CT1 ( * Nl44a!1055^01 ( - 1 ) ) ) ( * Nl44x!15^01 0 ) ) ( * ( + 0 Nl44a!1052^01 ) a!1052^0 ) ( * ( + 0 Nl44head!16^01 ) head!16^0 ) ( * ( + 0 Nl44sdv_CALLSITE_RETURN_1!14^01 ) sdv_CALLSITE_RETURN_1!14^0 ) ( * ( + 0 ( * Nl44a!1055^01 1 ) ) undef4374 ) ( * ( + 0 ( * Nl44x!15^01 1 ) ) undef4401 ) ) 0 ) ( <= ( + ( + ( + Nl44CT2 ( * Nl44a!1055^02 ( - 1 ) ) ) ( * Nl44x!15^02 0 ) ) ( * ( + 0 Nl44a!1052^02 ) a!1052^0 ) ( * ( + 0 Nl44head!16^02 ) head!16^0 ) ( * ( + 0 Nl44sdv_CALLSITE_RETURN_1!14^02 ) sdv_CALLSITE_RETURN_1!14^0 ) ( * ( + 0 ( * Nl44a!1055^02 1 ) ) undef4374 ) ( * ( + 0 ( * Nl44x!15^02 1 ) ) undef4401 ) ) 0 ) ) ( and ( <= ( + 1 x!15^0 ) 0 ) ( <= ( + 1 ( * ( - 1 ) undef4401 ) ) 0 ) ( not ( <= ( + ( - 1 ) head!16^0 ) 0 ) ) ( <= ( + 2 ( * ( - 1 ) sdv_CALLSITE_RETURN_1!14^0 ) ) 0 ) ( <= ( + 2 ( * ( - 1 ) undef4374 ) ) 0 ) ( = a!1052^0 0 ) ( = ( + head!16^0 ( * ( - 1 ) undef4401 ) ) 0 ) ( <= ( + ( + ( + Nl44CT1 ( * Nl44a!1055^01 ( - 1 ) ) ) ( * Nl44x!15^01 0 ) ) ( * ( + 0 Nl44a!1052^01 ) a!1052^0 ) ( * ( + 0 Nl44head!16^01 ) head!16^0 ) ( * ( + 0 Nl44sdv_CALLSITE_RETURN_1!14^01 ) sdv_CALLSITE_RETURN_1!14^0 ) ( * ( + 0 ( * Nl44a!1055^01 1 ) ) undef4374 ) ( * ( + 0 ( * Nl44x!15^01 1 ) ) undef4401 ) ) 0 ) ( <= ( + ( + ( + Nl44CT2 ( * Nl44a!1055^02 ( - 1 ) ) ) ( * Nl44x!15^02 0 ) ) ( * ( + 0 Nl44a!1052^02 ) a!1052^0 ) ( * ( + 0 Nl44head!16^02 ) head!16^0 ) ( * ( + 0 Nl44sdv_CALLSITE_RETURN_1!14^02 ) sdv_CALLSITE_RETURN_1!14^0 ) ( * ( + 0 ( * Nl44a!1055^02 1 ) ) undef4374 ) ( * ( + 0 ( * Nl44x!15^02 1 ) ) undef4401 ) ) 0 ) ) ) false ) ))
(check-sat)
(exit)
